MLW05
Position Depot: Center
Horizon for Depot: Large
Position of customers: Mixt
Distribution of the demand: Small
Width of time windows: Wide
Distribution of the service: Large

VEHICLE 
NUMBER 	 CAPACITY 
 6 	 	 112 
 
CUSTOMER
CUST NO. 	 XCOORD.  	 YCOORD. 	 DEMAND 	 READY TIME 	 DUE DATE 	 SERVICE TIME 
 0 	 	 500 	 	 500 	 	 0 	 	 0 	 	 4648 	 	 0 
  1 	 	 149 	 	 660 	 	 6 	 	 3539 	 	 3911 	 	 107 
  2 	 	 36 	 	 311 	 	 8 	 	 2883 	 	 3147 	 	 136 
  3 	 	 115 	 	 213 	 	 10 	 	 1049 	 	 1544 	 	 183 
  4 	 	 614 	 	 574 	 	 8 	 	 1067 	 	 1342 	 	 195 
  5 	 	 10 	 	 388 	 	 5 	 	 1567 	 	 1808 	 	 122 
  6 	 	 138 	 	 667 	 	 9 	 	 1848 	 	 2258 	 	 128 
  7 	 	 698 	 	 620 	 	 8 	 	 3598 	 	 3919 	 	 120 
  8 	 	 118 	 	 228 	 	 7 	 	 3732 	 	 3974 	 	 138 
  9 	 	 197 	 	 435 	 	 9 	 	 315 	 	 691 	 	 159 
  10 	 	 531 	 	 565 	 	 6 	 	 3741 	 	 4066 	 	 142 
  11 	 	 84 	 	 309 	 	 6 	 	 2360 	 	 2805 	 	 128 
  12 	 	 97 	 	 343 	 	 6 	 	 1336 	 	 1708 	 	 159 
  13 	 	 67 	 	 358 	 	 9 	 	 3375 	 	 3807 	 	 116 
  14 	 	 506 	 	 465 	 	 10 	 	 4230 	 	 4463 	 	 104 
  15 	 	 161 	 	 714 	 	 7 	 	 475 	 	 797 	 	 170 
  16 	 	 613 	 	 694 	 	 5 	 	 2591 	 	 2863 	 	 172 
  17 	 	 63 	 	 43 	 	 8 	 	 2323 	 	 2614 	 	 194 
  18 	 	 132 	 	 332 	 	 5 	 	 2423 	 	 2724 	 	 148 
  19 	 	 648 	 	 520 	 	 5 	 	 1681 	 	 1914 	 	 131 
  20 	 	 635 	 	 640 	 	 7 	 	 4402 	 	 4648 	 	 126 
  21 	 	 42 	 	 279 	 	 5 	 	 2806 	 	 3058 	 	 194 
  22 	 	 699 	 	 580 	 	 7 	 	 2602 	 	 2867 	 	 177 
  23 	 	 140 	 	 656 	 	 5 	 	 4444 	 	 4648 	 	 105 
  24 	 	 19 	 	 285 	 	 10 	 	 3613 	 	 3928 	 	 142 
  25 	 	 176 	 	 131 	 	 8 	 	 2576 	 	 2835 	 	 138 
  26 	 	 109 	 	 298 	 	 10 	 	 114 	 	 484 	 	 100 
  27 	 	 120 	 	 293 	 	 8 	 	 2272 	 	 2536 	 	 147 
  28 	 	 567 	 	 562 	 	 8 	 	 2032 	 	 2279 	 	 122 
  29 	 	 80 	 	 725 	 	 7 	 	 1878 	 	 2352 	 	 133 
  30 	 	 649 	 	 523 	 	 9 	 	 2982 	 	 3358 	 	 180 
  31 	 	 76 	 	 231 	 	 8 	 	 4243 	 	 4490 	 	 191 
  32 	 	 86 	 	 678 	 	 9 	 	 493 	 	 888 	 	 122 
  33 	 	 503 	 	 657 	 	 6 	 	 1304 	 	 1594 	 	 131 
  34 	 	 132 	 	 650 	 	 6 	 	 2459 	 	 2889 	 	 157 
  35 	 	 26 	 	 323 	 	 5 	 	 4139 	 	 4395 	 	 158 
  36 	 	 459 	 	 568 	 	 5 	 	 2115 	 	 2399 	 	 183 
  37 	 	 0 	 	 231 	 	 7 	 	 802 	 	 1003 	 	 161 
  38 	 	 148 	 	 123 	 	 10 	 	 1150 	 	 1377 	 	 113 
  39 	 	 34 	 	 437 	 	 9 	 	 937 	 	 1379 	 	 109 
  40 	 	 179 	 	 692 	 	 5 	 	 1557 	 	 1829 	 	 144 
  41 	 	 36 	 	 330 	 	 8 	 	 2592 	 	 2842 	 	 148 
  42 	 	 105 	 	 267 	 	 10 	 	 2591 	 	 3089 	 	 190 
  43 	 	 583 	 	 612 	 	 6 	 	 1681 	 	 1915 	 	 108 
  44 	 	 598 	 	 602 	 	 9 	 	 4113 	 	 4438 	 	 157 
  45 	 	 235 	 	 610 	 	 8 	 	 1318 	 	 1793 	 	 176 
  46 	 	 580 	 	 532 	 	 5 	 	 -50 	 	 396 	 	 133 
  47 	 	 90 	 	 245 	 	 8 	 	 2877 	 	 3151 	 	 161 
  48 	 	 26 	 	 273 	 	 5 	 	 4378 	 	 4648 	 	 161 
  49 	 	 134 	 	 804 	 	 6 	 	 3481 	 	 3953 	 	 180 
  50 	 	 339 	 	 548 	 	 5 	 	 796 	 	 1091 	 	 114 
  51 	 	 56 	 	 327 	 	 7 	 	 1301 	 	 1561 	 	 117 
  52 	 	 895 	 	 988 	 	 5 	 	 2584 	 	 2959 	 	 143 
  53 	 	 646 	 	 357 	 	 10 	 	 4241 	 	 4597 	 	 156 
  54 	 	 815 	 	 995 	 	 8 	 	 349 	 	 645 	 	 114 
  55 	 	 490 	 	 873 	 	 10 	 	 3605 	 	 3805 	 	 107 
  56 	 	 696 	 	 311 	 	 7 	 	 4195 	 	 4526 	 	 170 
  57 	 	 318 	 	 178 	 	 10 	 	 573 	 	 862 	 	 164 
  58 	 	 551 	 	 189 	 	 5 	 	 3603 	 	 4009 	 	 122 
  59 	 	 903 	 	 489 	 	 6 	 	 2402 	 	 2834 	 	 129 
  60 	 	 336 	 	 470 	 	 10 	 	 373 	 	 649 	 	 171 
  61 	 	 825 	 	 33 	 	 10 	 	 1502 	 	 1960 	 	 175 
  62 	 	 914 	 	 933 	 	 9 	 	 3316 	 	 3714 	 	 120 
  63 	 	 755 	 	 958 	 	 9 	 	 334 	 	 576 	 	 106 
  64 	 	 801 	 	 132 	 	 9 	 	 2933 	 	 3134 	 	 111 
  65 	 	 79 	 	 372 	 	 5 	 	 2980 	 	 3292 	 	 174 
  66 	 	 801 	 	 833 	 	 10 	 	 4217 	 	 4632 	 	 130 
  67 	 	 242 	 	 258 	 	 9 	 	 403 	 	 731 	 	 194 
  68 	 	 668 	 	 811 	 	 7 	 	 1706 	 	 1965 	 	 155 
  69 	 	 275 	 	 21 	 	 7 	 	 1955 	 	 2433 	 	 196 
  70 	 	 991 	 	 518 	 	 7 	 	 3202 	 	 3628 	 	 107 
  71 	 	 493 	 	 752 	 	 6 	 	 3454 	 	 3814 	 	 195 
  72 	 	 160 	 	 203 	 	 10 	 	 2570 	 	 2830 	 	 123 
  73 	 	 821 	 	 180 	 	 5 	 	 869 	 	 1361 	 	 154 
  74 	 	 66 	 	 29 	 	 6 	 	 3483 	 	 3689 	 	 186 
  75 	 	 295 	 	 604 	 	 7 	 	 3978 	 	 4296 	 	 146 
  76 	 	 778 	 	 444 	 	 9 	 	 3628 	 	 3911 	 	 165 
  77 	 	 639 	 	 914 	 	 9 	 	 2019 	 	 2342 	 	 197 
  78 	 	 730 	 	 181 	 	 10 	 	 1531 	 	 1744 	 	 135 
  79 	 	 475 	 	 150 	 	 7 	 	 90 	 	 385 	 	 177 
  80 	 	 306 	 	 398 	 	 9 	 	 2441 	 	 2791 	 	 184 
  81 	 	 257 	 	 785 	 	 8 	 	 594 	 	 971 	 	 132 
  82 	 	 539 	 	 149 	 	 7 	 	 3620 	 	 4070 	 	 145 
  83 	 	 733 	 	 593 	 	 6 	 	 3372 	 	 3579 	 	 114 
  84 	 	 577 	 	 86 	 	 8 	 	 2309 	 	 2680 	 	 106 
  85 	 	 224 	 	 362 	 	 9 	 	 758 	 	 1062 	 	 189 
  86 	 	 522 	 	 176 	 	 6 	 	 2371 	 	 2662 	 	 139 
  87 	 	 119 	 	 289 	 	 5 	 	 1397 	 	 1700 	 	 144 
  88 	 	 794 	 	 750 	 	 10 	 	 357 	 	 621 	 	 111 
  89 	 	 905 	 	 806 	 	 6 	 	 3828 	 	 4091 	 	 174 
  90 	 	 851 	 	 803 	 	 5 	 	 1473 	 	 1866 	 	 107 
  91 	 	 630 	 	 52 	 	 8 	 	 1500 	 	 1722 	 	 133 
  92 	 	 824 	 	 985 	 	 7 	 	 574 	 	 812 	 	 143 
  93 	 	 159 	 	 169 	 	 7 	 	 3068 	 	 3269 	 	 196 
  94 	 	 121 	 	 19 	 	 7 	 	 398 	 	 741 	 	 157 
  95 	 	 298 	 	 966 	 	 6 	 	 2516 	 	 2775 	 	 175 
  96 	 	 267 	 	 897 	 	 9 	 	 331 	 	 541 	 	 134 
  97 	 	 332 	 	 900 	 	 8 	 	 436 	 	 840 	 	 114 
  98 	 	 139 	 	 301 	 	 8 	 	 176 	 	 474 	 	 136 
  99 	 	 701 	 	 851 	 	 7 	 	 3679 	 	 4056 	 	 108 
  100 	 	 152 	 	 506 	 	 10 	 	 128 	 	 598 	 	 141 
 